NPROCS=0
This instance is clustered!
Gurobi Optimizer version 9.0.0 build v9.0.0rc2 (linux64)
Optimize a model with 42 rows, 442 columns and 882 nonzeros
Model fingerprint: 0x57e5a6f8
Variable types: 1 continuous, 441 integer (441 binary)
Coefficient statistics:
  Matrix range     [1e+00, 1e+00]
  Objective range  [1e+00, 4e+02]
  Bounds range     [1e+00, 1e+00]
  RHS range        [1e+00, 1e+00]
Presolve removed 2 rows and 60 columns
Presolve time: 0.01s
Presolved: 40 rows, 382 columns, 762 nonzeros
Variable types: 1 continuous, 381 integer (381 binary)

Root relaxation: objective 9.160402e+02, 37 iterations, 0.00 seconds

    Nodes    |    Current Node    |     Objective Bounds      |     Work
 Expl Unexpl |  Obj  Depth IntInf | Incumbent    BestBd   Gap | It/Node Time

     0     0  919.68110    0   10          -  919.68110      -     -    0s
H    0     0                    1413.8057822  919.68110  34.9%     -    0s
H    0     0                    1366.8164073  919.68110  32.7%     -    0s
     0     0 1120.65018    0   14 1366.81641 1120.65018  18.0%     -    0s
H    0     0                    1344.5330642 1120.65018  16.7%     -    0s
     0     0 1136.15377    0    8 1344.53306 1136.15377  15.5%     -    0s
     0     0 1178.15484    0   36 1344.53306 1178.15484  12.4%     -    0s
H    0     0                    1327.8267794 1178.15484  11.3%     -    0s
H    0     0                    1320.5829137 1178.15484  10.8%     -    0s
     0     0 1190.70948    0   38 1320.58291 1190.70948  9.83%     -    0s
     0     0 1190.70948    0   44 1320.58291 1190.70948  9.83%     -    0s
     0     0 1192.47316    0   45 1320.58291 1192.47316  9.70%     -    0s
     0     0 1194.52285    0   42 1320.58291 1194.52285  9.55%     -    0s
     0     0 1195.13277    0   50 1320.58291 1195.13277  9.50%     -    0s
     0     0 1195.30313    0   54 1320.58291 1195.30313  9.49%     -    0s
     0     0 1195.44423    0   54 1320.58291 1195.44423  9.48%     -    0s
     0     0 1196.50470    0   50 1320.58291 1196.50470  9.40%     -    0s
     0     0 1196.96123    0   51 1320.58291 1196.96123  9.36%     -    0s
     0     0 1196.99016    0   51 1320.58291 1196.99016  9.36%     -    0s
     0     0 1196.99016    0   51 1320.58291 1196.99016  9.36%     -    0s
     0     2 1196.99016    0   51 1320.58291 1196.99016  9.36%     -    0s

Cutting planes:
  Gomory: 3
  MIR: 2
  Zero half: 20
  Mod-K: 3
  Lazy constraints: 166

Explored 5430 nodes (44200 simplex iterations) in 0.69 seconds
Thread count was 12 (of 12 available processors)

Solution count 5: 1320.58 1327.83 1344.53 ... 1413.81

Optimal solution found (tolerance 1.00e-04)
Best objective 1.320582913657e+03, best bound 1.320582913657e+03, gap 0.0000%

User-callback calls 11455, time in user-callback 0.02 sec
/projects/academic/josewalt/caigao/RRARP_BD/BendersDecomp/ret/model_outs/n_19_e_1_algo_3.out
 =====>>>>> Solution is written to file in <../ret/model_outs> !!!
===>> All Done!
